25
    1     5     5
    2    19    19
    3    13    13
    4    16    16
    5     7     7
    6     9     9
    7    20    20
    8     5     5
    9     1     1
   10     3     3
   11    11    11
   12     2     2
   13    10    10
   14    19    19
   15     1     1
   16     1     1
   17     6     6
   18    16    16
   19    19    19
   20     4     4
   21    17    17
   22     4     4
   23    20    20
   24    20    20
   25    13    13
21
